results/real/sos1/jan_16_80.out
Version identifier: 22.1.1.0 | 2022-11-28 | 9160aff4d
CPXPARAM_Threads                                 1
CPXPARAM_MIP_Strategy_VariableSelect             3
CPXPARAM_TimeLimit                               599.99998986200001
1 of 1 MIP starts provided solutions.
MIP start 'm1' defined initial solution with objective 47.0000.
Tried aggregator 1 time.
MIP Presolve eliminated 97 rows and 400 columns.
MIP Presolve modified 68 coefficients.
Reduced MIP has 396 rows, 640 columns, and 8624 nonzeros.
Reduced MIP has 640 binaries, 0 generals, 0 SOSs, and 0 indicators.
Presolve time = 0.01 sec. (17.84 ticks)
Probing time = 0.01 sec. (4.23 ticks)
Tried aggregator 1 time.
Detecting symmetries...
MIP Presolve modified 5 coefficients.
Reduced MIP has 396 rows, 640 columns, and 8798 nonzeros.
Reduced MIP has 640 binaries, 0 generals, 0 SOSs, and 0 indicators.
Presolve time = 0.01 sec. (10.18 ticks)
Probing time = 0.01 sec. (4.21 ticks)
Clique table members: 235.
MIP emphasis: balance optimality and feasibility.
MIP search method: dynamic search.
Parallel mode: none, using 1 thread.
Root relaxation solution time = 0.00 sec. (3.23 ticks)

        Nodes                                         Cuts/
   Node  Left     Objective  IInf  Best Integer    Best Bound    ItCnt     Gap

*     0+    0                           47.0000     3240.0000              --- 
*     0     0      integral     0       80.0000       80.0000      131    0.00%
Elapsed time = 0.05 sec. (44.15 ticks, tree = 0.00 MB, solutions = 2)

Root node processing (before b&c):
  Real time             =    0.05 sec. (44.19 ticks)
Sequential b&c:
  Real time             =    0.00 sec. (0.00 ticks)
                          ------------
Total (root+branch&cut) =    0.05 sec. (44.19 ticks)
Primal:	80
Dual:	80
Status:	Optimal
Time:	0.04
Sequence:
	0
	4
	9
	5
	5
	9
	9
	4
	4
	9
	11
	9
	9
	9
	4
	4
	3
	9
	4
	9
	4
	4
	0
	4
	4
	0
	4
	4
	3
	5
	0
	4
	4
	0
	4
	4
	1
	0
	4
	4
	0
	1
	1
	9
	4
	9
	4
	4
	0
	9
	1
	4
	0
	1
	9
	0
	3
	9
	9
	9
	9
	0
	4
	9
	0
	3
	9
	9
	0
	9
	9
	3
	0
	9
	9
	9
	9
	9
	1
	0
